232116
231819
231819
231819
230978
229067
228688
228688
223338
222730
222730
222325
222325
222325
216956
216956
215503
215503
214876
213245
212203
212031
209541
209112
209112
206844
206844
206844
206844
206844
206844
206844
206844
206584
204832
203765
203765
203765
203765
201334
201334
201245
201245
197109
197109
197109
197109
197109
197109
197109
196858
196858
196858
196858
196628
193132
192681
192681
192681
192681
192681
192383
191999
191999
191483
190753
190753
188117
188117
188117
187674
187674
187674
186984
186984
186984
186984
186984
184653
184653
182794
182794
182794
182794
182794
182410
182410
182410
182410
182080
182014
182014
181700
180852
180852
180852
180852
180852
180463
178744
